Ti6 Au2
1.0
   5.0879588163752993    0.0000000000000000    0.0000000000000000
   0.0000000000000000    5.0879588163752993    0.0000000000000000
   0.0000000000000000    0.0000000000000000    5.0879588163752993
Au Ti
2 6
direct
   0.0000000000000000    0.0000000000000000    0.0000000000000000 Au
   0.5000000000000000    0.5000000000000000    0.5000000000000000 Au
   0.2500000000000000    0.0000000000000000    0.5000000000000000 Ti
   0.7500000000000000    0.0000000000000000    0.5000000000000000 Ti
   0.0000000000000000    0.5000000000000000    0.2500000000000000 Ti
   0.0000000000000000    0.5000000000000000    0.7500000000000000 Ti
   0.5000000000000000    0.2500000000000000    0.0000000000000000 Ti
   0.5000000000000000    0.7500000000000000    0.0000000000000000 Ti
