Ti48 Au16
1.0
  10.1759176327505987    0.0000000000000000    0.0000000000000000
   0.0000000000000000   10.1759176327505987    0.0000000000000000
   0.0000000000000000    0.0000000000000000   10.1759176327505987
Au Ti
16 48
direct
   0.0009827123568508    0.0000000000000000    0.0000000000000000 Au
   0.5000000000000000    0.0000000000000000    0.0000000000000000 Au
   0.0000000000000000    0.5000000000000000    0.0000000000000000 Au
   0.5000000000000000    0.5000000000000000    0.0000000000000000 Au
   0.0000000000000000    0.0000000000000000    0.5000000000000000 Au
   0.5000000000000000    0.0000000000000000    0.5000000000000000 Au
   0.0000000000000000    0.5000000000000000    0.5000000000000000 Au
   0.5000000000000000    0.5000000000000000    0.5000000000000000 Au
   0.2500000000000000    0.2500000000000000    0.2500000000000000 Au
   0.7500000000000000    0.2500000000000000    0.2500000000000000 Au
   0.2500000000000000    0.7500000000000000    0.2500000000000000 Au
   0.7500000000000000    0.7500000000000000    0.2500000000000000 Au
   0.2500000000000000    0.2500000000000000    0.7500000000000000 Au
   0.7500000000000000    0.2500000000000000    0.7500000000000000 Au
   0.2500000000000000    0.7500000000000000    0.7500000000000000 Au
   0.7500000000000000    0.7500000000000000    0.7500000000000000 Au
   0.1250000000000000    0.0000000000000000    0.2500000000000000 Ti
   0.6250000000000000    0.0000000000000000    0.2500000000000000 Ti
   0.1250000000000000    0.5000000000000000    0.2500000000000000 Ti
   0.6250000000000000    0.5000000000000000    0.2500000000000000 Ti
   0.1250000000000000    0.0000000000000000    0.7500000000000000 Ti
   0.6250000000000000    0.0000000000000000    0.7500000000000000 Ti
   0.1250000000000000    0.5000000000000000    0.7500000000000000 Ti
   0.6250000000000000    0.5000000000000000    0.7500000000000000 Ti
   0.3750000000000000    0.0000000000000000    0.2500000000000000 Ti
   0.8750000000000000    0.0000000000000000    0.2500000000000000 Ti
   0.3750000000000000    0.5000000000000000    0.2500000000000000 Ti
   0.8750000000000000    0.5000000000000000    0.2500000000000000 Ti
   0.3750000000000000    0.0000000000000000    0.7500000000000000 Ti
   0.8750000000000000    0.0000000000000000    0.7500000000000000 Ti
   0.3750000000000000    0.5000000000000000    0.7500000000000000 Ti
   0.8750000000000000    0.5000000000000000    0.7500000000000000 Ti
   0.0000000000000000    0.2500000000000000    0.1250000000000000 Ti
   0.5000000000000000    0.2500000000000000    0.1250000000000000 Ti
   0.0000000000000000    0.7500000000000000    0.1250000000000000 Ti
   0.5000000000000000    0.7500000000000000    0.1250000000000000 Ti
   0.0000000000000000    0.2500000000000000    0.6250000000000000 Ti
   0.5000000000000000    0.2500000000000000    0.6250000000000000 Ti
   0.0000000000000000    0.7500000000000000    0.6250000000000000 Ti
   0.5000000000000000    0.7500000000000000    0.6250000000000000 Ti
   0.0000000000000000    0.2500000000000000    0.3750000000000000 Ti
   0.5000000000000000    0.2500000000000000    0.3750000000000000 Ti
   0.0000000000000000    0.7500000000000000    0.3750000000000000 Ti
   0.5000000000000000    0.7500000000000000    0.3750000000000000 Ti
   0.0000000000000000    0.2500000000000000    0.8750000000000000 Ti
   0.5000000000000000    0.2500000000000000    0.8750000000000000 Ti
   0.0000000000000000    0.7500000000000000    0.8750000000000000 Ti
   0.5000000000000000    0.7500000000000000    0.8750000000000000 Ti
   0.2500000000000000    0.1250000000000000    0.0000000000000000 Ti
   0.7500000000000000    0.1250000000000000    0.0000000000000000 Ti
   0.2500000000000000    0.6250000000000000    0.0000000000000000 Ti
   0.7500000000000000    0.6250000000000000    0.0000000000000000 Ti
   0.2500000000000000    0.1250000000000000    0.5000000000000000 Ti
   0.7500000000000000    0.1250000000000000    0.5000000000000000 Ti
   0.2500000000000000    0.6250000000000000    0.5000000000000000 Ti
   0.7500000000000000    0.6250000000000000    0.5000000000000000 Ti
   0.2500000000000000    0.3750000000000000    0.0000000000000000 Ti
   0.7500000000000000    0.3750000000000000    0.0000000000000000 Ti
   0.2500000000000000    0.8750000000000000    0.0000000000000000 Ti
   0.7500000000000000    0.8750000000000000    0.0000000000000000 Ti
   0.2500000000000000    0.3750000000000000    0.5000000000000000 Ti
   0.7500000000000000    0.3750000000000000    0.5000000000000000 Ti
   0.2500000000000000    0.8750000000000000    0.5000000000000000 Ti
   0.7500000000000000    0.8750000000000000    0.5000000000000000 Ti
