KPOINTS generated by autodft in vasp.py
0 ! number of kpoints
Gamma
9 9 9 
0 0 0
